(set-logic HORN)
(declare-fun state (Int Int (Array Int Int) Int (Array Int Int) Int (Array Int Int) Int (Array Int Int) Int (Array Int Int) Int Int Bool Bool Bool Int Int Int Int Int Int Bool Bool Bool Bool Bool Bool Int Int Bool) Bool)
(assert (forall ((|D_7| Int) (|G_7| Int) (|H_7| (Array Int Int)) (|L_7| Int) (|.y.17| (Array Int Int)) (|P_6| Int) (|Q_6| (Array Int Int)) (|.y.18| Int) (|E_7| (Array Int Int)) (|.y.19| Int) (|M_7| (Array Int Int)) (|O_7| Int) (|A_7| Int) (|.loc.20| Bool) (|.loc.21| Bool) (|.loc.22| Bool) (|K_7| Int) (|F_7| Int) (|I_7| Int) (|J_7| Int) (|R_6| Int) (|N_7| Int) (|U_4| Bool) (|Z_3| Bool) (|Y_3| Bool) (|X_3| Bool) (|W_3| Bool) (|V_4| Bool) (|S_6| Int) (|T_4| Int) (|C_7| Bool) (|.loc.37| Bool) (|.loc.38| Bool) (|.loc.36| Bool) (|.y.35| Int) (|.y.34| Int) (|.y.23| Int) (|.y.24| Int) (|.y.25| (Array Int Int)) (|.y.26| Int) (|.y.28| Int) (|.y.29| (Array Int Int)) (|.y.31| (Array Int Int)) (|.y.33| (Array Int Int)) (|.y.30| Int) (|.y.32| Int) (|.y.27| (Array Int Int)) (|.xtv.1| Int) (|.xtv.2| Int) (|.xtv.3| Int) (|.xtv.4| Int) (|.xtv.5| Int) (|.xtv.6| Int) (|.xtv.7| Bool) (|.xtv.8| Bool) (|.xtv.9| Bool) (|.xtv.10| Bool) (|.xtv.11| Bool) (|.xtv.12| Bool) (|.xtv.13| Int) (|.xtv.14| Int) (|.xtv.15| Bool)) (=> (and (and (not .loc.20) (not .loc.21)) (not .loc.22)) (state |D_7| |G_7| |H_7| |L_7| |.y.17| |P_6| |Q_6| |.y.18| |E_7| |.y.19| |M_7| |O_7| |A_7| |.loc.20| |.loc.21| |.loc.22| |K_7| |F_7| |I_7| |J_7| |R_6| |N_7| |U_4| |Z_3| |Y_3| |X_3| |W_3| |V_4| |S_6| |T_4| |C_7|))))
(assert (forall ((|D_7| Int) (|G_7| Int) (|H_7| (Array Int Int)) (|L_7| Int) (|.y.17| (Array Int Int)) (|P_6| Int) (|Q_6| (Array Int Int)) (|.y.18| Int) (|E_7| (Array Int Int)) (|.y.19| Int) (|M_7| (Array Int Int)) (|O_7| Int) (|A_7| Int) (|.loc.20| Bool) (|.loc.21| Bool) (|.loc.22| Bool) (|K_7| Int) (|F_7| Int) (|I_7| Int) (|J_7| Int) (|R_6| Int) (|N_7| Int) (|U_4| Bool) (|Z_3| Bool) (|Y_3| Bool) (|X_3| Bool) (|W_3| Bool) (|V_4| Bool) (|S_6| Int) (|T_4| Int) (|C_7| Bool) (|.loc.37| Bool) (|.loc.38| Bool) (|.loc.36| Bool) (|.y.35| Int) (|.y.34| Int) (|.y.23| Int) (|.y.24| Int) (|.y.25| (Array Int Int)) (|.y.26| Int) (|.y.28| Int) (|.y.29| (Array Int Int)) (|.y.31| (Array Int Int)) (|.y.33| (Array Int Int)) (|.y.30| Int) (|.y.32| Int) (|.y.27| (Array Int Int)) (|.xtv.1| Int) (|.xtv.2| Int) (|.xtv.3| Int) (|.xtv.4| Int) (|.xtv.5| Int) (|.xtv.6| Int) (|.xtv.7| Bool) (|.xtv.8| Bool) (|.xtv.9| Bool) (|.xtv.10| Bool) (|.xtv.11| Bool) (|.xtv.12| Bool) (|.xtv.13| Int) (|.xtv.14| Int) (|.xtv.15| Bool)) (=> (and (state |D_7| |G_7| |H_7| |L_7| |.y.17| |P_6| |Q_6| |.y.18| |E_7| |.y.19| |M_7| |O_7| |A_7| |.loc.20| |.loc.21| |.loc.22| |K_7| |F_7| |I_7| |J_7| |R_6| |N_7| |U_4| |Z_3| |Y_3| |X_3| |W_3| |V_4| |S_6| |T_4| |C_7|) (let ((.def_41 (not .loc.20))) (let ((.def_42 (not .loc.21))) (let ((.def_44 (not .loc.22))) (let ((.def_47 (not .loc.37))) (let ((.def_53 (not Y_3))) (let ((.def_56 (not X_3))) (let ((.def_59 (<= G_7 0))) (let ((.def_60 (not .def_59))) (let ((.def_62 (<= D_7 0))) (let ((.def_63 (not .def_62))) (let ((.def_68 (select H_7 I_7))) (let ((.def_76 (= (+ D_7 (+ O_7 (* (- 1) F_7))) 0))) (let ((.def_78 (select E_7 F_7))) (let ((.def_84 (= (+ G_7 (+ O_7 (* (- 1) I_7))) 0))) (let ((.def_86 (not V_4))) (let ((.def_89 (not U_4))) (let ((.def_91 (<= L_7 0))) (let ((.def_92 (not .def_91))) (let ((.def_94 (<= P_6 0))) (let ((.def_95 (not .def_94))) (let ((.def_113 (not (<= N_7 0)))) (let ((.def_125 (not (<= F_7 0)))) (let ((.def_131 (not (<= I_7 0)))) (let ((.def_165 (not (<= A_7 O_7)))) (let ((.def_178 (not .loc.36))) (let ((.def_182 (<= O_7 .y.18))) (let ((.def_185 (= D_7 .y.23))) (let ((.def_188 (= G_7 .y.24))) (let ((.def_191 (= H_7 .y.25))) (let ((.def_194 (= L_7 .y.26))) (let ((.def_197 (= P_6 .y.28))) (let ((.def_200 (= Q_6 .y.29))) (let ((.def_203 (= E_7 .y.31))) (let ((.def_206 (= M_7 .y.33))) (let ((.def_213 (not (<= J_7 0)))) (let ((.def_230 (and .def_92 .def_95))) (let ((.def_255 (not (<= K_7 0)))) (let ((.def_256 (or .def_94 .def_255))) (let ((.def_258 (or .def_62 .def_125))) (let ((.def_277 (not .loc.38))) (let ((.def_280 (= .y.30 0))) (let ((.def_282 (= O_7 .y.34))) (let ((.def_285 (and .def_63 .def_92))) (let ((.def_302 (= (+ .y.18 (* (- 1) .y.30)) (- 1)))) (let ((.def_306 (= .y.31 (store E_7 J_7 (select M_7 I_7))))) (let ((.def_309 (= .y.33 (store M_7 K_7 .def_78)))) (let ((.def_313 (= (+ D_7 (+ .y.18 (* (- 1) J_7))) 0))) (let ((.def_317 (= (+ D_7 (+ .y.18 (* (- 1) F_7))) 0))) (let ((.def_321 (= (+ L_7 (+ .y.18 (* (- 1) K_7))) 0))) (let ((.def_325 (= (+ L_7 (+ .y.18 (* (- 1) I_7))) 0))) (let ((.def_327 (not .def_182))) (let ((.def_329 (or .def_91 .def_255))) (let ((.def_331 (or .def_91 .def_131))) (let ((.def_333 (or .def_62 .def_213))) (let ((.def_353 (<= .y.19 G_7))) (let ((.def_413 (<= .y.18 0))) (or (or (or (or (or (or (and (and .def_47 .loc.38) (or (or (and (and .def_42 (and .def_41 (and .loc.22 (and (or (and Y_3 X_3) (and U_4 V_4)) (and (and (or X_3 .def_53) (and (or (and X_3 C_7) .def_56) (and (or .def_56 .def_60) (and (or .def_56 .def_63) (and (or .def_56 (= Z_3 (= K_7 J_7))) (and (or .def_56 (= K_7 .def_68)) (and (or .def_56 .def_76) (and (or .def_56 (= J_7 .def_78)) (and (or .def_56 .def_84) (and (or U_4 .def_86) (and (or (and U_4 X_3) .def_89) (and (or .def_89 .def_92) (and (or .def_89 .def_95) (and (or .def_89 (= W_3 (= S_6 T_4))) (and (or .def_89 (= T_4 (select Q_6 R_6))) (and (or .def_89 (= S_6 (select M_7 N_7))) (and (or .def_89 (= (+ L_7 (+ O_7 (* (- 1) N_7))) 0)) (and (and (and (and (and (and (and (or (or .def_89 .def_91) .def_113) (or (or .def_89 .def_94) (not (<= R_6 0)))) (or .def_89 (or .def_86 (not W_3)))) (or .def_62 (or .def_56 .def_125))) (or (or .def_56 .def_59) .def_131)) (or .def_89 (or Z_3 .def_56))) (or .def_56 (or .def_53 (not Z_3)))) (or .def_89 (= (+ P_6 (+ O_7 (* (- 1) R_6))) 0)))))))))))))))))))) .def_165))))) .loc.36) (and (= O_7 .y.35) (and (and (and (and (and (and (and (and (and (and (= .y.34 0) (and .def_44 (and (and .loc.20 .loc.21) .def_178))) .def_182) .def_185) .def_188) .def_191) .def_194) .def_197) .def_200) .def_203) .def_206))) (and (= A_7 .y.35) (and (or .def_59 .def_131) (and (and (and (or .def_91 .def_213) (and (= (+ L_7 (+ O_7 (* (- 1) J_7))) 0) (and (= (+ P_6 (+ O_7 (* (- 1) K_7))) 0) (and (= (+ O_7 (* (- 1) .y.34)) (- 1)) (and (= (select M_7 J_7) (select Q_6 K_7)) (and (= .def_68 .def_78) (and .def_206 (and .def_203 (and .def_200 (and .def_197 (and .def_194 (and .def_191 (and .def_188 (and .def_185 (and .def_178 (and .def_42 (and .def_41 (and .loc.22 (and .def_165 (and .def_60 (and .def_63 (and .def_76 (and .def_84 .def_230))))))))))))))))))))))) .def_256) .def_258))))) (and (and (and (and .def_206 (and .def_203 (and .def_200 (and .def_197 (and .def_194 (and .def_191 (and .def_188 (and .def_185 (and .def_182 (and .def_44 (and .loc.37 (and .loc.36 (and .loc.21 .def_41))))))))))))) .def_277) .def_280) .def_282)) (and (and (and (and (and (and (and (and (and (and (and (and .def_282 (and .def_277 (and .def_258 (and .def_200 (and .def_197 (and .def_194 (and .def_191 (and .def_188 (and .def_185 (and .def_44 (and .loc.37 (and .loc.36 (and .loc.21 (and .loc.20 .def_285)))))))))))))) .def_302) .def_306) .def_309) .def_313) .def_317) .def_321) .def_325) .def_327) .def_329) .def_331) .def_333)) (and (= .y.19 .y.34) (and (= E_7 .y.29) (and (= .y.18 .y.28) (and (= P_6 .y.26) (and (= .y.17 .y.25) (and (= L_7 .y.24) (and (and (= H_7 .y.31) (and (= Q_6 .y.33) (and .def_280 (and .def_277 (and .def_185 (and .def_44 (and .def_178 (and .loc.37 (and .loc.20 .def_42))))))))) .def_353)))))))) (and .def_333 (and .def_331 (and .def_329 (and .def_327 (and .def_325 (and .def_321 (and .def_317 (and .def_313 (and .def_309 (and .def_306 (and .def_302 (and .def_282 (and .def_277 (and .def_258 (and .def_200 (and .def_197 (and .def_194 (and .def_191 (and .def_188 (and .def_185 (and .def_44 (and .def_178 (and .loc.37 (and .def_41 (and .loc.21 .def_285)))))))))))))))))))))))))) (and (not (<= .y.26 0)) (and (not (<= .y.23 0)) (and (not (<= .y.28 0)) (and (not (<= .y.30 0)) (and (not (<= .y.32 0)) (and (= .y.24 0) (and .def_277 (and .def_44 (and .def_47 (and (and .def_41 .def_42) .loc.36))))))))))) (and (= .y.19 .y.32) (and (= .y.18 .y.30) (and (or .def_113 .def_413) (and (not .def_353) (and (= (+ D_7 (+ G_7 (* (- 1) F_7))) 0) (and (= (+ G_7 (+ L_7 (* (- 1) I_7))) 0) (and (= (+ G_7 (+ P_6 (* (- 1) K_7))) 0) (and (= (+ G_7 (+ .y.18 (* (- 1) N_7))) 0) (and (not .def_413) (and (= .y.29 (store Q_6 K_7 R_6)) (and (= .y.31 (store E_7 N_7 R_6)) (and (= (store .y.17 I_7 J_7) .y.27) (and (= .y.25 (store H_7 F_7 J_7)) (and (= (+ G_7 (* (- 1) .y.24)) (- 1)) (and .def_331 (and .def_277 (and .def_258 (and .def_256 (and .def_197 (and .def_194 (and .def_185 (and .def_44 (and .def_47 (and .loc.36 (and .def_42 (and .loc.20 (and .def_63 .def_230))))))))))))))))))))))))))))))))))))))))))))))))))))))))))))))))))))))))))))))))))))) (state |.y.23| |.y.24| |.y.25| |.y.26| |.y.27| |.y.28| |.y.29| |.y.30| |.y.31| |.y.32| |.y.33| |.y.34| |.y.35| |.loc.36| |.loc.37| |.loc.38| |.xtv.1| |.xtv.2| |.xtv.3| |.xtv.4| |.xtv.5| |.xtv.6| |.xtv.7| |.xtv.8| |.xtv.9| |.xtv.10| |.xtv.11| |.xtv.12| |.xtv.13| |.xtv.14| |.xtv.15|))))
(assert (forall ((|D_7| Int) (|G_7| Int) (|H_7| (Array Int Int)) (|L_7| Int) (|.y.17| (Array Int Int)) (|P_6| Int) (|Q_6| (Array Int Int)) (|.y.18| Int) (|E_7| (Array Int Int)) (|.y.19| Int) (|M_7| (Array Int Int)) (|O_7| Int) (|A_7| Int) (|.loc.20| Bool) (|.loc.21| Bool) (|.loc.22| Bool) (|K_7| Int) (|F_7| Int) (|I_7| Int) (|J_7| Int) (|R_6| Int) (|N_7| Int) (|U_4| Bool) (|Z_3| Bool) (|Y_3| Bool) (|X_3| Bool) (|W_3| Bool) (|V_4| Bool) (|S_6| Int) (|T_4| Int) (|C_7| Bool) (|.loc.37| Bool) (|.loc.38| Bool) (|.loc.36| Bool) (|.y.35| Int) (|.y.34| Int) (|.y.23| Int) (|.y.24| Int) (|.y.25| (Array Int Int)) (|.y.26| Int) (|.y.28| Int) (|.y.29| (Array Int Int)) (|.y.31| (Array Int Int)) (|.y.33| (Array Int Int)) (|.y.30| Int) (|.y.32| Int) (|.y.27| (Array Int Int)) (|.xtv.1| Int) (|.xtv.2| Int) (|.xtv.3| Int) (|.xtv.4| Int) (|.xtv.5| Int) (|.xtv.6| Int) (|.xtv.7| Bool) (|.xtv.8| Bool) (|.xtv.9| Bool) (|.xtv.10| Bool) (|.xtv.11| Bool) (|.xtv.12| Bool) (|.xtv.13| Int) (|.xtv.14| Int) (|.xtv.15| Bool)) (=> (state |D_7| |G_7| |H_7| |L_7| |.y.17| |P_6| |Q_6| |.y.18| |E_7| |.y.19| |M_7| |O_7| |A_7| |.loc.20| |.loc.21| |.loc.22| |K_7| |F_7| |I_7| |J_7| |R_6| |N_7| |U_4| |Z_3| |Y_3| |X_3| |W_3| |V_4| |S_6| |T_4| |C_7|) (not (and .loc.22 (and .loc.20 (not .loc.21)))))))
(check-sat)
